6866
1 1 1 1 1 0 0 0 1 0 1 0 0 1 1 1 0 1 0 0 0 0 0 0 0 0 0 0 1 0 
10 0 10 10 10 0 10 15 1 1 1 1 1 15 1 2 2 3 2 3 2 4 4 4 4 4 4 8 8 13 8 8 8 8 10 2 3 17 14 28 28 3 15 28 17 14 14 17 13 28 0 13 13 1 3 14 13 28 14 14 15 15 28 28 14 13 14 13 15 28 
